NAME: random_50_3
TYPE: TSP
COMMENT: random_50_3
DIMENSION: 50
EDGE_WEIGHT_TYPE: EUC_2D
NODE_COORD_SECTION
1 359 380
2 426 172
3 164 276
4 89 105
5 271 63
6 71 65
7 127 434
8 122 233
9 228 363
10 210 231
11 214 29
12 178 211
13 358 243
14 234 218
15 362 361
16 29 467
17 228 262
18 285 272
19 476 430
20 65 486
21 192 179
22 299 251
23 369 363
24 312 106
25 477 297
26 491 166
27 0 291
28 283 81
29 145 424
30 478 467
31 252 327
32 73 276
33 195 59
34 380 60
35 8 467
36 114 124
37 262 437
38 210 53
39 103 37
40 317 153
41 484 257
42 293 45
43 448 267
44 426 485
45 366 163
46 339 146
47 257 224
48 275 201
49 388 406
50 198 343
